
Gurobi 9.5.0 (linux64) logging started Tue Nov  7 13:10:19 2023

Set parameter LogFile to value "/lustre1/scratch/348/vsc34888/JointResearch/05.Models/06.Benchmarking/D.Representative_days_based_on_RES_and_Demand/3-bus_ByStages_nc10/openStarNet_3-bus_ByStages_nc10.log"
Set parameter Method to value 2
Set parameter MIPFocus to value 1
Set parameter Presolve to value 2
Set parameter RINS to value 100
Set parameter MIPGap to value 0.01
Set parameter Threads to value 36
Set parameter TimeLimit to value 604800
Set parameter IterationLimit to value 760000000
Gurobi Optimizer version 9.5.0 build v9.5.0rc5 (linux64)
Thread count: 36 physical cores, 36 logical processors, using up to 36 threads
Optimize a model with 711 rows, 325 columns and 1946 nonzeros
Model fingerprint: 0x69a48321
Variable types: 316 continuous, 9 integer (9 binary)
Coefficient statistics:
  Matrix range     [1e-02, 1e+05]
  Objective range  [1e+00, 1e+00]
  Bounds range     [1e-05, 2e+00]
  RHS range        [1e-05, 1e+00]
Presolve removed 291 rows and 90 columns
Presolve time: 0.00s
Presolved: 420 rows, 235 columns, 1486 nonzeros
Variable types: 226 continuous, 9 integer (9 binary)
Found heuristic solution: objective 55.1787580
Root relaxation presolved: 420 rows, 235 columns, 1486 nonzeros

Root barrier log...

Ordering time: 0.00s

Barrier statistics:
 AA' NZ     : 9.840e+03
 Factor NZ  : 4.681e+04 (roughly 1 MB of memory)
 Factor Ops : 6.969e+06 (less than 1 second per iteration)
 Threads    : 1

                  Objective                Residual
Iter       Primal          Dual         Primal    Dual     Compl     Time
   0   3.58618834e+05 -3.34449447e+07  1.45e+01 3.37e+02  6.15e+04     0s
   1   1.52825555e+04 -6.57502378e+05  7.32e-01 1.82e-11  1.69e+03     0s
   2   1.08337899e+03 -4.00550439e+05  4.72e-02 2.62e-10  5.26e+02     0s
   3   4.61787521e+02 -1.10679641e+04  9.48e-04 4.82e-11  1.40e+01     0s
   4   1.69463968e+02 -7.92914275e+02  8.03e-07 1.54e-11  1.16e+00     0s
   5   6.01574867e+01 -3.18800375e+01  4.48e-09 3.22e-12  1.11e-01     0s
   6   4.72965218e+01  3.62485214e+01  1.81e-10 1.82e-12  1.33e-02     0s
   7   4.31242818e+01  4.14669371e+01  1.04e-10 2.73e-12  2.00e-03     0s
   8   4.26849777e+01  4.25641437e+01  5.96e-09 1.82e-12  1.46e-04     0s
   9   4.26187172e+01  4.26176703e+01  3.76e-09 9.09e-13  1.26e-06     0s
  10   4.26182687e+01  4.26182677e+01  8.33e-10 1.82e-12  1.26e-09     0s
  11   4.26182683e+01  4.26182683e+01  5.16e-10 1.82e-12  1.36e-15     0s

Barrier solved model in 11 iterations and 0.04 seconds (0.02 work units)
Optimal objective 4.26182683e+01


Root relaxation: objective 4.261827e+01, 45 iterations, 0.03 seconds (0.01 work units)

    Nodes    |    Current Node    |     Objective Bounds      |     Work
 Expl Unexpl |  Obj  Depth IntInf | Incumbent    BestBd   Gap | It/Node Time

     0     0   42.61827    0    2   55.17876   42.61827  22.8%     -    0s
H    0     0                      43.0968938   42.61827  1.11%     -    0s
     0     0   42.86827    0    2   43.09689   42.86827  0.53%     -    0s

Cutting planes:
  Cover: 1
  MIR: 13

Explored 1 nodes (58 simplex iterations) in 0.04 seconds (0.02 work units)
Thread count was 36 (of 36 available processors)

Solution count 2: 43.0969 55.1788 

Optimal solution found (tolerance 1.00e-02)
Best objective 4.309689380597e+01, best bound 4.286826827272e+01, gap 0.5305%

Gurobi 9.5.0 (linux64) logging started Tue Nov  7 13:10:19 2023

Set parameter LogFile to value "/lustre1/scratch/348/vsc34888/JointResearch/05.Models/06.Benchmarking/D.Representative_days_based_on_RES_and_Demand/3-bus_ByStages_nc10/openStarNet_3-bus_ByStages_nc10.log"
Set parameter Method to value 2
Set parameter MIPFocus to value 1
Set parameter Presolve to value 2
Set parameter RINS to value 100
Set parameter MIPGap to value 0.01
Set parameter Threads to value 36
Set parameter TimeLimit to value 604800
Set parameter IterationLimit to value 760000000
No parameters matching 'relax_integrality' found
Gurobi Optimizer version 9.5.0 build v9.5.0rc5 (linux64)
Thread count: 36 physical cores, 36 logical processors, using up to 36 threads
Optimize a model with 711 rows, 316 columns and 1577 nonzeros
Model fingerprint: 0x12c48a60
Coefficient statistics:
  Matrix range     [1e-02, 1e+05]
  Objective range  [1e+00, 1e+00]
  Bounds range     [1e-05, 2e+00]
  RHS range        [1e-05, 1e+00]
Presolve removed 641 rows and 190 columns
Presolve time: 0.00s
Presolved: 70 rows, 126 columns, 256 nonzeros

Ordering time: 0.00s

Barrier statistics:
 AA' NZ     : 1.700e+02
 Factor NZ  : 2.800e+02
 Factor Ops : 1.400e+03 (less than 1 second per iteration)
 Threads    : 1

                  Objective                Residual
Iter       Primal          Dual         Primal    Dual     Compl     Time
   0   4.06640481e+05 -2.67056338e+07  3.82e+01 5.94e+02  1.59e+05     0s
   1   1.31141460e+04 -4.42734290e+05  1.58e+00 5.46e-12  3.37e+03     0s
   2   1.35417509e+03 -4.67916381e+04  7.48e-03 9.09e-12  1.96e+02     0s
   3   3.83334081e+02 -1.11349865e+03  1.49e-04 3.96e-12  5.95e+00     0s
   4   1.21791631e+02 -3.94822286e+02  6.88e-06 4.45e-12  2.05e+00     0s
   5   8.76363735e+01 -1.33515249e+02  1.89e-06 4.45e-12  8.78e-01     0s
   6   5.57752479e+01 -4.37653676e+00  3.29e-07 1.82e-12  2.39e-01     0s
   7   4.75234153e+01  3.50312034e+01  1.14e-07 3.64e-12  4.96e-02     0s
   8   4.35045759e+01  4.24815454e+01  6.74e-09 1.82e-12  4.06e-03     0s
   9   4.31005475e+01  4.30801563e+01  9.31e-10 2.73e-12  8.09e-05     0s
  10   4.30969320e+01  4.30967125e+01  2.02e-09 9.09e-13  8.72e-07     0s
  11   4.30968938e+01  4.30968938e+01  5.23e-11 9.09e-13  1.26e-10     0s

Barrier solved model in 11 iterations and 0.00 seconds (0.00 work units)
Optimal objective 4.30968938e+01

Crossover log...

       1 DPushes remaining with DInf 0.0000000e+00                 0s
       0 DPushes remaining with DInf 0.0000000e+00                 0s

      10 PPushes remaining with PInf 0.0000000e+00                 0s
       0 PPushes remaining with PInf 0.0000000e+00                 0s

  Push phase complete: Pinf 0.0000000e+00, Dinf 7.4606987e-14      0s

Iteration    Objective       Primal Inf.    Dual Inf.      Time
      14    4.3096894e+01   0.000000e+00   0.000000e+00      0s

Solved in 14 iterations and 0.00 seconds (0.00 work units)
Optimal objective  4.309689381e+01
